language Essence 1.3

letting blksize_delta be function(1 --> 6, 2 --> 8, 3 --> 7, 4 --> 6, 5 --> 6, 6 --> 7)
letting maxcars be function(1 --> 9, 2 --> 9, 3 --> 9, 4 --> 10, 5 --> 9, 6 --> 9)
letting n_cars be 212
letting n_classes be 81
letting n_options be 6
letting quantity be
        function(1 --> 9, 2 --> 13, 3 --> 22, 4 --> 14, 5 --> 2, 6 --> 2, 7 --> 2, 8 --> 2, 9 --> 2, 10 --> 2, 11 --> 2,
                 12 --> 2, 13 --> 2, 14 --> 2, 15 --> 2, 16 --> 2, 17 --> 2, 18 --> 2, 19 --> 2, 20 --> 2, 21 --> 2,
                 22 --> 2, 23 --> 2, 24 --> 2, 25 --> 2, 26 --> 2, 27 --> 2, 28 --> 2, 29 --> 2, 30 --> 2, 31 --> 2,
                 32 --> 2, 33 --> 2, 34 --> 2, 35 --> 2, 36 --> 2, 37 --> 2, 38 --> 2, 39 --> 2, 40 --> 2, 41 --> 2,
                 42 --> 2, 43 --> 2, 44 --> 2, 45 --> 2, 46 --> 2, 47 --> 2, 48 --> 2, 49 --> 2, 50 --> 2, 51 --> 2,
                 52 --> 2, 53 --> 2, 54 --> 2, 55 --> 2, 56 --> 2, 57 --> 2, 58 --> 2, 59 --> 2, 60 --> 2, 61 --> 2,
                 62 --> 2, 63 --> 2, 64 --> 2, 65 --> 2, 66 --> 2, 67 --> 2, 68 --> 2, 69 --> 2, 70 --> 2, 71 --> 2,
                 72 --> 2, 73 --> 2, 74 --> 2, 75 --> 2, 76 --> 2, 77 --> 2, 78 --> 2, 79 --> 2, 80 --> 2, 81 --> 2)
letting usage be
        relation((1, 1), (1, 2), (1, 4), (2, 6), (3, 2), (3, 4), (3, 5), (3, 6), (4, 1), (4, 3), (4, 4), (5, 3), (5, 6),
                 (6, 4), (6, 6), (7, 1), (7, 6), (8, 5), (9, 3), (9, 4), (9, 6), (10, 1), (10, 4), (10, 5), (10, 6),
                 (11, 2), (12, 2), (13, 1), (13, 2), (13, 3), (14, 1), (14, 2), (14, 3), (15, 1), (15, 4), (16, 1),
                 (16, 3), (16, 6), (17, 1), (17, 6), (18, 1), (18, 4), (18, 5), (19, 3), (20, 4), (20, 5), (21, 5),
                 (21, 6), (22, 1), (22, 5), (22, 6), (23, 1), (23, 5), (24, 1), (24, 2), (25, 1), (25, 4), (25, 5),
                 (26, 4), (27, 3), (27, 4), (28, 1), (28, 2), (28, 6), (29, 2), (29, 5), (30, 1), (30, 2), (30, 3),
                 (30, 4), (30, 6), (31, 1), (31, 2), (31, 3), (31, 4), (31, 5), (32, 2), (32, 4), (32, 6), (33, 3),
                 (33, 4), (33, 5), (34, 1), (34, 4), (34, 6), (35, 3), (36, 2), (36, 5), (37, 3), (37, 4), (37, 6),
                 (38, 2), (38, 4), (38, 5), (38, 6), (39, 1), (39, 3), (40, 1), (40, 3), (40, 4), (40, 6), (41, 1),
                 (41, 4), (41, 5), (42, 4), (42, 6), (43, 2), (43, 4), (43, 6), (44, 1), (44, 5), (44, 6), (45, 5),
                 (45, 6), (46, 1), (46, 2), (46, 5), (47, 1), (47, 2), (47, 4), (47, 5), (47, 6), (48, 2), (48, 5),
                 (48, 6), (49, 1), (49, 3), (49, 6), (50, 1), (50, 3), (51, 5), (51, 6), (52, 2), (52, 3), (52, 5),
                 (53, 2), (53, 3), (53, 5), (54, 1), (54, 2), (54, 4), (54, 5), (54, 6), (55, 2), (55, 3), (55, 4),
                 (55, 5), (55, 6), (56, 1), (56, 2), (56, 5), (56, 6), (57, 1), (58, 6), (59, 1), (59, 3), (59, 4),
                 (60, 1), (60, 5), (60, 6), (61, 1), (61, 2), (61, 4), (61, 5), (62, 2), (62, 3), (62, 4), (62, 5),
                 (63, 4), (63, 6), (64, 6), (65, 6), (66, 1), (66, 4), (66, 6), (67, 2), (67, 4), (67, 6), (68, 1),
                 (68, 2), (68, 4), (69, 2), (69, 3), (70, 1), (70, 2), (70, 3), (70, 4), (70, 6), (71, 2), (71, 5),
                 (72, 1), (73, 1), (73, 3), (73, 6), (74, 1), (74, 2), (74, 3), (74, 5), (75, 2), (75, 4), (76, 1),
                 (76, 6), (77, 1), (77, 2), (77, 4), (77, 6), (78, 3), (78, 5), (79, 1), (79, 3), (79, 4), (80, 3),
                 (80, 6), (81, 1), (81, 2), (81, 5))
$ Visualisation for usage
$  1  1
$  1  2
$  1  4
$  2  6
$  3  2
$  3  4
$  3  5
$  3  6
$  4  1
$  4  3
$  4  4
$  5  3
$  5  6
$  6  4
$  6  6
$  7  1
$  7  6
$  8  5
$  9  3
$  9  4
$  9  6
$ 10  1
$ 10  4
$ 10  5
$ 10  6
$ 11  2
$ 12  2
$ 13  1
$ 13  2
$ 13  3
$ 14  1
$ 14  2
$ 14  3
$ 15  1
$ 15  4
$ 16  1
$ 16  3
$ 16  6
$ 17  1
$ 17  6
$ 18  1
$ 18  4
$ 18  5
$ 19  3
$ 20  4
$ 20  5
$ 21  5
$ 21  6
$ 22  1
$ 22  5
$ 22  6
$ 23  1
$ 23  5
$ 24  1
$ 24  2
$ 25  1
$ 25  4
$ 25  5
$ 26  4
$ 27  3
$ 27  4
$ 28  1
$ 28  2
$ 28  6
$ 29  2
$ 29  5
$ 30  1
$ 30  2
$ 30  3
$ 30  4
$ 30  6
$ 31  1
$ 31  2
$ 31  3
$ 31  4
$ 31  5
$ 32  2
$ 32  4
$ 32  6
$ 33  3
$ 33  4
$ 33  5
$ 34  1
$ 34  4
$ 34  6
$ 35  3
$ 36  2
$ 36  5
$ 37  3
$ 37  4
$ 37  6
$ 38  2
$ 38  4
$ 38  5
$ 38  6
$ 39  1
$ 39  3
$ 40  1
$ 40  3
$ 40  4
$ 40  6
$ 41  1
$ 41  4
$ 41  5
$ 42  4
$ 42  6
$ 43  2
$ 43  4
$ 43  6
$ 44  1
$ 44  5
$ 44  6
$ 45  5
$ 45  6
$ 46  1
$ 46  2
$ 46  5
$ 47  1
$ 47  2
$ 47  4
$ 47  5
$ 47  6
$ 48  2
$ 48  5
$ 48  6
$ 49  1
$ 49  3
$ 49  6
$ 50  1
$ 50  3
$ 51  5
$ 51  6
$ 52  2
$ 52  3
$ 52  5
$ 53  2
$ 53  3
$ 53  5
$ 54  1
$ 54  2
$ 54  4
$ 54  5
$ 54  6
$ 55  2
$ 55  3
$ 55  4
$ 55  5
$ 55  6
$ 56  1
$ 56  2
$ 56  5
$ 56  6
$ 57  1
$ 58  6
$ 59  1
$ 59  3
$ 59  4
$ 60  1
$ 60  5
$ 60  6
$ 61  1
$ 61  2
$ 61  4
$ 61  5
$ 62  2
$ 62  3
$ 62  4
$ 62  5
$ 63  4
$ 63  6
$ 64  6
$ 65  6
$ 66  1
$ 66  4
$ 66  6
$ 67  2
$ 67  4
$ 67  6
$ 68  1
$ 68  2
$ 68  4
$ 69  2
$ 69  3
$ 70  1
$ 70  2
$ 70  3
$ 70  4
$ 70  6
$ 71  2
$ 71  5
$ 72  1
$ 73  1
$ 73  3
$ 73  6
$ 74  1
$ 74  2
$ 74  3
$ 74  5
$ 75  2
$ 75  4
$ 76  1
$ 76  6
$ 77  1
$ 77  2
$ 77  4
$ 77  6
$ 78  3
$ 78  5
$ 79  1
$ 79  3
$ 79  4
$ 80  3
$ 80  6
$ 81  1
$ 81  2
$ 81  5

